NAME : local_11
TYPE : ATSP
DIMENSION : 11
EDGE_WEIGHT_TYPE : EXPLICIT
EDGE_WEIGHT_FORMAT : FULL_MATRIX
EDGE_WEIGHT_SECTION
0 10000000 908 10000000 10000000 625 10000000 10000000 291 876 10000000 
0 0 814 378 10000000 10000000 10000000 488 10000000 976 655 
0 814 0 10000000 658 10000000 799 765 984 170 1128 
0 378 10000000 0 10000000 10000000 10000000 365 10000000 10000000 740 
0 10000000 658 10000000 0 10000000 264 10000000 10000000 598 1064 
0 10000000 10000000 10000000 10000000 0 10000000 10000000 405 10000000 662 
0 10000000 799 10000000 264 10000000 0 10000000 10000000 786 877 
0 488 765 365 10000000 10000000 10000000 0 10000000 929 889 
0 10000000 984 10000000 10000000 405 10000000 10000000 0 10000000 885 
0 976 170 10000000 598 10000000 786 929 10000000 0 10000000 
0 10000000 10000000 10000000 10000000 10000000 10000000 10000000 10000000 10000000 0 
EOF